3 40 1 10
1 17 7 17 11 5 1 9 18 15 9 4 11 1 20 10 19 2 15 9 15 20 17 1 13 11 13 19 18 18 3 14 20 13 6 3 5 14 13 20 
8.91 13.7 8.74 4.26 13.94 10.46 0.09 1.17 2.43 14.77 3.1 0.44 8.84 2.97 5.77 0.79 10.35 5.36 6.7 0.16 0.41 7.07 12.64 10.17 8.05 3.36 6.28 4.56 4.49 8.89 13.89 6.76 10.01 2.56 1.58 13.06 6.35 7.35 15.84 5.32 
8 8 8 8 8 8 8 8 8 8 8 8 8 8 8 8 8 8 8 8 8 8 8 8 8 8 8 8 8 8 8 8 8 8 8 8 8 8 8 8 
4.05 12.98 1.93 4.09 1.1 11.44 1.1 3.1 0.62 2.25 7.48 4.18 14.49 12.1 15.16 7.19 14.5 10.62 6.12 5.76 10.99 12.98 0.96 0.03 12.34 12.23 4.41 11.13 10.51 8.94 4.62 1.34 7.81 14.8 7.37 13.78 9.77 12.6 5.23 11.92 
1 1 1 1 1 1 1 1 1 1 1 1 1 1 1 1 1 1 1 1 1 1 1 1 1 1 1 1 1 1 1 1 1 1 1 1 1 1 1 1 
1 1 1 1 1 1 1 1 1 1 1 1 1 1 1 1 1 1 1 1 1 1 1 1 1 1 1 1 1 1 1 1 1 1 1 1 1 1 1 1 
1 1 1 1 1 1 1 1 1 1 1 1 1 1 1 1 1 1 1 1 1 1 1 1 1 1 1 1 1 1 1 1 1 1 1 1 1 1 1 1 
0.01 0.01 0.01 0.01 0.01 0.01 0.01 0.01 0.01 0.01 0.01 0.01 0.01 0.01 0.01 0.01 0.01 0.01 0.01 0.01 0.01 0.01 0.01 0.01 0.01 0.01 0.01 0.01 0.01 0.01 0.01 0.01 0.01 0.01 0.01 0.01 0.01 0.01 0.01 0.01 
0.02 0.02 0.02 0.02 0.02 0.02 0.02 0.02 0.02 0.02 0.02 0.02 0.02 0.02 0.02 0.02 0.02 0.02 0.02 0.02 0.02 0.02 0.02 0.02 0.02 0.02 0.02 0.02 0.02 0.02 0.02 0.02 0.02 0.02 0.02 0.02 0.02 0.02 0.02 0.02 
1 1 1 1 1 1 1 1 1 1 1 1 1 1 1 1 1 1 1 1 1 1 1 1 1 1 1 1 1 1 1 1 1 1 1 1 1 1 1 1 
